\*  *\
Minimize
OBJ: I(0) + I(1) + I(2) + I(3) + I(4) + I(5) + I(6) + I(7) + I(8) + I(9)
 + 5 y(0) + 5 y(1) + 5 y(2) + 5 y(3) + 5 y(4) + 5 y(5) + 5 y(6) + 5 y(7)
 + 5 y(8) + 5 y(9)
Subject To
c_1: - I(0) + x(0) = 8
c_10: I(8) - I(9) + x(9) = 9
c_11: x(0) - 67 y(0) <= 0
c_12: x(1) - 67 y(1) <= 0
c_13: x(2) - 67 y(2) <= 0
c_14: x(3) - 67 y(3) <= 0
c_15: x(4) - 67 y(4) <= 0
c_16: x(5) - 67 y(5) <= 0
c_17: x(6) - 67 y(6) <= 0
c_18: x(7) - 67 y(7) <= 0
c_19: x(8) - 67 y(8) <= 0
c_2: I(0) - I(1) + x(1) = 8
c_20: x(9) - 67 y(9) <= 0
c_3: I(1) - I(2) + x(2) = 6
c_4: I(2) - I(3) + x(3) = 7
c_5: I(3) - I(4) + x(4) = 7
c_6: I(4) - I(5) + x(5) = 2
c_7: I(5) - I(6) + x(6) = 8
c_8: I(6) - I(7) + x(7) = 7
c_9: I(7) - I(8) + x(8) = 5
= 8
c_8: I(6) - I(7) + x(7) = 7
c_9: I(7) - I(8) + x(8) = 5
Bounds
 I(0) <= 1e+100
 I(1) <= 1e+100
 I(2) <= 1e+100
 I(3) <= 1e+100
 I(4) <= 1e+100
 I(5) <= 1e+100
 I(6) <= 1e+100
 I(7) <= 1e+100
 I(8) <= 1e+100
 I(9) <= 1e+100
 x(0) <= 1e+100
 x(1) <= 1e+100
 x(2) <= 1e+100
 x(3) <= 1e+100
 x(4) <= 1e+100
 x(5) <= 1e+100
 x(6) <= 1e+100
 x(7) <= 1e+100
 x(8) <= 1e+100
 x(9) <= 1e+100
Binaries
setup(0)
setup(1)
setup(2)
setup(3)
setup(4)
setup(5)
setup(6)
setup(7)
setup(8)
setup(9)
y(0)
y(1)
y(2)
y(3)
y(4)
y(5)
y(6)
y(7)
y(8)
y(9)
End
